Optimal - objective value 47.00000000
     33 x_1_38                   1                       0
     42 x_2_11                   1                       0
     74 x_3_6                    1                       0
     99 x_4_0                    1                       0
    164 x_5_41                   1                       0
    180 x_6_16                   1                       0
    227 x_7_32                   1                       0
    261 x_8_28                   1                       0
    269 x_9_2                    1                       0
    331 x_10_43                  1                       0
    343 x_11_22                  1                       0
    393 x_12_47                  1                      14
